% demand
num_movements = 26;
loading_factor = [1850, 800, 1250, 1350, 1750, 1850, 1800, 1050, 950, 950, 1800, 1200, 1250, 2000, 1900, 1400, 1100, 1750, 1100, 1450, 800, 1600, 1450, 2000, 900, 1450];
pickup_time = [0, 0, 0, 0, 0, 3, 3, 5, 5, 5, 5, 6, 7, 7, 7, 8, 8, 8, 9, 9, 9, 10, 12, 12, 13, 13];
delivery_time = [2, 2, 2, 2, 2, 5, 4, 7, 7, 7, 7, 7, 8, 8, 8, 9, 12, 9, 12, 11, 11, 13, 13, 13, 14, 14];

% transporter definition
total_capacity = 7000;
num_decks = 3;
capacity = [3000, 1000, 3000];

% ways out of decks
num_ways_out = 1;
paths_out = array3d(decks, ways_out, decks, [
% ways out of deck d1
2, 3, 0, 

% ways out of deck d2
3, 0, 0, 

% ways out of deck d3
0, 0, 0,	

]);

